
  12   12
  10   10   10   10   10   10   10   10   10   10   10   10

   0   0   0   0   0   0   0   0   0   0   0   0   0   5 2 3 4 6 11 
   4   0   0   0   1   1   1   1   0   0   0   0   0   4 10 8 7 5 
   2   0   0   0   0   0   0   6   1   0   0   0   0   3 8 7 5 
   9   0   0   1   0   7   0   0   0   1   0   0   1   2 8 7 
   1   1   0   6   0   7   8   0   0   0   0   1   0   1 9 
   9   0   0   0   0   0   6   0   8   0   0   8   6   1 7 
   6   0   0   0  10   0   0   0   4   0   0   0   0   1 12
   1   0   1   0   0   0   0   0   0   0   5   0   0   1 12
   1   9   0   8   0   0   0   8   4   0   0   5   0   1 12
   4   0   4   0   4   0   0   0   8   9   0   6   0   1 12
   3   0  10   0   0   0   0   0   0   0   0   0   8   1 12
   0   0   0   0   0   0   0   0   0   0   0   0   0   0 
